c Transportation problem: 40 sources, 30 sinks
p min 70 1200
n 1 1000
n 2 1000
n 3 1000
n 4 1000
n 5 1000
n 6 1000
n 7 1000
n 8 1000
n 9 1000
n 10 1000
n 11 1000
n 12 1000
n 13 1000
n 14 1000
n 15 1000
n 16 1000
n 17 1000
n 18 1000
n 19 1000
n 20 1000
n 21 1000
n 22 1000
n 23 1000
n 24 1000
n 25 1000
n 26 1000
n 27 1000
n 28 1000
n 29 1000
n 30 1000
n 31 1000
n 32 1000
n 33 1000
n 34 1000
n 35 1000
n 36 1000
n 37 1000
n 38 1000
n 39 1000
n 40 1000
n 41 -1333
n 42 -1333
n 43 -1333
n 44 -1333
n 45 -1333
n 46 -1333
n 47 -1333
n 48 -1333
n 49 -1333
n 50 -1333
n 51 -1333
n 52 -1333
n 53 -1333
n 54 -1333
n 55 -1333
n 56 -1333
n 57 -1333
n 58 -1333
n 59 -1333
n 60 -1333
n 61 -1333
n 62 -1333
n 63 -1333
n 64 -1333
n 65 -1333
n 66 -1333
n 67 -1333
n 68 -1333
n 69 -1333
n 70 -1343
a 1 41 0 1000 7
a 1 42 0 1000 2
a 1 43 0 1000 2
a 1 44 0 1000 6
a 1 45 0 1000 2
a 1 46 0 1000 3
a 1 47 0 1000 8
a 1 48 0 1000 6
a 1 49 0 1000 2
a 1 50 0 1000 8
a 1 51 0 1000 3
a 1 52 0 1000 3
a 1 53 0 1000 6
a 1 54 0 1000 4
a 1 55 0 1000 4
a 1 56 0 1000 3
a 1 57 0 1000 6
a 1 58 0 1000 1
a 1 59 0 1000 9
a 1 60 0 1000 6
a 1 61 0 1000 4
a 1 62 0 1000 2
a 1 63 0 1000 1
a 1 64 0 1000 8
a 1 65 0 1000 9
a 1 66 0 1000 6
a 1 67 0 1000 1
a 1 68 0 1000 8
a 1 69 0 1000 2
a 1 70 0 1000 10
a 2 41 0 1000 7
a 2 42 0 1000 6
a 2 43 0 1000 2
a 2 44 0 1000 1
a 2 45 0 1000 4
a 2 46 0 1000 6
a 2 47 0 1000 9
a 2 48 0 1000 1
a 2 49 0 1000 6
a 2 50 0 1000 9
a 2 51 0 1000 8
a 2 52 0 1000 4
a 2 53 0 1000 2
a 2 54 0 1000 1
a 2 55 0 1000 1
a 2 56 0 1000 8
a 2 57 0 1000 7
a 2 58 0 1000 2
a 2 59 0 1000 3
a 2 60 0 1000 8
a 2 61 0 1000 3
a 2 62 0 1000 7
a 2 63 0 1000 2
a 2 64 0 1000 1
a 2 65 0 1000 7
a 2 66 0 1000 6
a 2 67 0 1000 1
a 2 68 0 1000 5
a 2 69 0 1000 8
a 2 70 0 1000 7
a 3 41 0 1000 3
a 3 42 0 1000 1
a 3 43 0 1000 4
a 3 44 0 1000 3
a 3 45 0 1000 1
a 3 46 0 1000 8
a 3 47 0 1000 1
a 3 48 0 1000 5
a 3 49 0 1000 1
a 3 50 0 1000 8
a 3 51 0 1000 5
a 3 52 0 1000 6
a 3 53 0 1000 5
a 3 54 0 1000 1
a 3 55 0 1000 9
a 3 56 0 1000 1
a 3 57 0 1000 1
a 3 58 0 1000 1
a 3 59 0 1000 7
a 3 60 0 1000 1
a 3 61 0 1000 10
a 3 62 0 1000 10
a 3 63 0 1000 5
a 3 64 0 1000 4
a 3 65 0 1000 7
a 3 66 0 1000 1
a 3 67 0 1000 4
a 3 68 0 1000 2
a 3 69 0 1000 5
a 3 70 0 1000 8
a 4 41 0 1000 6
a 4 42 0 1000 5
a 4 43 0 1000 3
a 4 44 0 1000 10
a 4 45 0 1000 6
a 4 46 0 1000 8
a 4 47 0 1000 1
a 4 48 0 1000 9
a 4 49 0 1000 10
a 4 50 0 1000 4
a 4 51 0 1000 8
a 4 52 0 1000 2
a 4 53 0 1000 2
a 4 54 0 1000 5
a 4 55 0 1000 4
a 4 56 0 1000 8
a 4 57 0 1000 2
a 4 58 0 1000 2
a 4 59 0 1000 3
a 4 60 0 1000 6
a 4 61 0 1000 6
a 4 62 0 1000 10
a 4 63 0 1000 8
a 4 64 0 1000 7
a 4 65 0 1000 8
a 4 66 0 1000 3
a 4 67 0 1000 6
a 4 68 0 1000 10
a 4 69 0 1000 7
a 4 70 0 1000 1
a 5 41 0 1000 4
a 5 42 0 1000 10
a 5 43 0 1000 1
a 5 44 0 1000 3
a 5 45 0 1000 3
a 5 46 0 1000 1
a 5 47 0 1000 3
a 5 48 0 1000 6
a 5 49 0 1000 5
a 5 50 0 1000 1
a 5 51 0 1000 10
a 5 52 0 1000 2
a 5 53 0 1000 2
a 5 54 0 1000 4
a 5 55 0 1000 4
a 5 56 0 1000 8
a 5 57 0 1000 9
a 5 58 0 1000 1
a 5 59 0 1000 1
a 5 60 0 1000 9
a 5 61 0 1000 9
a 5 62 0 1000 3
a 5 63 0 1000 10
a 5 64 0 1000 9
a 5 65 0 1000 3
a 5 66 0 1000 6
a 5 67 0 1000 7
a 5 68 0 1000 7
a 5 69 0 1000 2
a 5 70 0 1000 3
a 6 41 0 1000 2
a 6 42 0 1000 1
a 6 43 0 1000 3
a 6 44 0 1000 10
a 6 45 0 1000 10
a 6 46 0 1000 8
a 6 47 0 1000 2
a 6 48 0 1000 9
a 6 49 0 1000 2
a 6 50 0 1000 3
a 6 51 0 1000 6
a 6 52 0 1000 6
a 6 53 0 1000 8
a 6 54 0 1000 2
a 6 55 0 1000 6
a 6 56 0 1000 4
a 6 57 0 1000 9
a 6 58 0 1000 5
a 6 59 0 1000 4
a 6 60 0 1000 10
a 6 61 0 1000 5
a 6 62 0 1000 6
a 6 63 0 1000 10
a 6 64 0 1000 9
a 6 65 0 1000 2
a 6 66 0 1000 2
a 6 67 0 1000 1
a 6 68 0 1000 2
a 6 69 0 1000 10
a 6 70 0 1000 8
a 7 41 0 1000 5
a 7 42 0 1000 6
a 7 43 0 1000 5
a 7 44 0 1000 2
a 7 45 0 1000 10
a 7 46 0 1000 10
a 7 47 0 1000 9
a 7 48 0 1000 2
a 7 49 0 1000 4
a 7 50 0 1000 6
a 7 51 0 1000 7
a 7 52 0 1000 10
a 7 53 0 1000 9
a 7 54 0 1000 8
a 7 55 0 1000 3
a 7 56 0 1000 4
a 7 57 0 1000 6
a 7 58 0 1000 9
a 7 59 0 1000 3
a 7 60 0 1000 9
a 7 61 0 1000 7
a 7 62 0 1000 2
a 7 63 0 1000 3
a 7 64 0 1000 3
a 7 65 0 1000 9
a 7 66 0 1000 7
a 7 67 0 1000 1
a 7 68 0 1000 5
a 7 69 0 1000 9
a 7 70 0 1000 9
a 8 41 0 1000 8
a 8 42 0 1000 10
a 8 43 0 1000 10
a 8 44 0 1000 5
a 8 45 0 1000 9
a 8 46 0 1000 10
a 8 47 0 1000 2
a 8 48 0 1000 6
a 8 49 0 1000 3
a 8 50 0 1000 7
a 8 51 0 1000 6
a 8 52 0 1000 8
a 8 53 0 1000 2
a 8 54 0 1000 9
a 8 55 0 1000 4
a 8 56 0 1000 6
a 8 57 0 1000 8
a 8 58 0 1000 3
a 8 59 0 1000 6
a 8 60 0 1000 8
a 8 61 0 1000 6
a 8 62 0 1000 2
a 8 63 0 1000 10
a 8 64 0 1000 1
a 8 65 0 1000 1
a 8 66 0 1000 3
a 8 67 0 1000 4
a 8 68 0 1000 2
a 8 69 0 1000 3
a 8 70 0 1000 3
a 9 41 0 1000 9
a 9 42 0 1000 5
a 9 43 0 1000 4
a 9 44 0 1000 5
a 9 45 0 1000 8
a 9 46 0 1000 7
a 9 47 0 1000 10
a 9 48 0 1000 4
a 9 49 0 1000 9
a 9 50 0 1000 4
a 9 51 0 1000 2
a 9 52 0 1000 10
a 9 53 0 1000 6
a 9 54 0 1000 7
a 9 55 0 1000 4
a 9 56 0 1000 10
a 9 57 0 1000 1
a 9 58 0 1000 5
a 9 59 0 1000 9
a 9 60 0 1000 4
a 9 61 0 1000 10
a 9 62 0 1000 9
a 9 63 0 1000 9
a 9 64 0 1000 1
a 9 65 0 1000 3
a 9 66 0 1000 6
a 9 67 0 1000 1
a 9 68 0 1000 9
a 9 69 0 1000 5
a 9 70 0 1000 7
a 10 41 0 1000 7
a 10 42 0 1000 10
a 10 43 0 1000 3
a 10 44 0 1000 10
a 10 45 0 1000 8
a 10 46 0 1000 1
a 10 47 0 1000 4
a 10 48 0 1000 7
a 10 49 0 1000 1
a 10 50 0 1000 7
a 10 51 0 1000 6
a 10 52 0 1000 4
a 10 53 0 1000 4
a 10 54 0 1000 3
a 10 55 0 1000 7
a 10 56 0 1000 7
a 10 57 0 1000 7
a 10 58 0 1000 4
a 10 59 0 1000 7
a 10 60 0 1000 1
a 10 61 0 1000 2
a 10 62 0 1000 9
a 10 63 0 1000 3
a 10 64 0 1000 10
a 10 65 0 1000 4
a 10 66 0 1000 1
a 10 67 0 1000 6
a 10 68 0 1000 4
a 10 69 0 1000 2
a 10 70 0 1000 2
a 11 41 0 1000 7
a 11 42 0 1000 2
a 11 43 0 1000 10
a 11 44 0 1000 2
a 11 45 0 1000 7
a 11 46 0 1000 2
a 11 47 0 1000 7
a 11 48 0 1000 7
a 11 49 0 1000 9
a 11 50 0 1000 4
a 11 51 0 1000 7
a 11 52 0 1000 5
a 11 53 0 1000 5
a 11 54 0 1000 2
a 11 55 0 1000 8
a 11 56 0 1000 6
a 11 57 0 1000 6
a 11 58 0 1000 7
a 11 59 0 1000 5
a 11 60 0 1000 7
a 11 61 0 1000 10
a 11 62 0 1000 7
a 11 63 0 1000 3
a 11 64 0 1000 4
a 11 65 0 1000 6
a 11 66 0 1000 9
a 11 67 0 1000 7
a 11 68 0 1000 4
a 11 69 0 1000 6
a 11 70 0 1000 8
a 12 41 0 1000 5
a 12 42 0 1000 10
a 12 43 0 1000 6
a 12 44 0 1000 9
a 12 45 0 1000 1
a 12 46 0 1000 5
a 12 47 0 1000 5
a 12 48 0 1000 2
a 12 49 0 1000 6
a 12 50 0 1000 5
a 12 51 0 1000 1
a 12 52 0 1000 10
a 12 53 0 1000 5
a 12 54 0 1000 4
a 12 55 0 1000 5
a 12 56 0 1000 8
a 12 57 0 1000 5
a 12 58 0 1000 1
a 12 59 0 1000 2
a 12 60 0 1000 8
a 12 61 0 1000 5
a 12 62 0 1000 10
a 12 63 0 1000 10
a 12 64 0 1000 6
a 12 65 0 1000 3
a 12 66 0 1000 10
a 12 67 0 1000 9
a 12 68 0 1000 7
a 12 69 0 1000 7
a 12 70 0 1000 9
a 13 41 0 1000 6
a 13 42 0 1000 4
a 13 43 0 1000 1
a 13 44 0 1000 2
a 13 45 0 1000 10
a 13 46 0 1000 7
a 13 47 0 1000 10
a 13 48 0 1000 6
a 13 49 0 1000 2
a 13 50 0 1000 4
a 13 51 0 1000 2
a 13 52 0 1000 4
a 13 53 0 1000 2
a 13 54 0 1000 1
a 13 55 0 1000 7
a 13 56 0 1000 1
a 13 57 0 1000 3
a 13 58 0 1000 10
a 13 59 0 1000 9
a 13 60 0 1000 9
a 13 61 0 1000 4
a 13 62 0 1000 6
a 13 63 0 1000 2
a 13 64 0 1000 8
a 13 65 0 1000 3
a 13 66 0 1000 6
a 13 67 0 1000 1
a 13 68 0 1000 1
a 13 69 0 1000 7
a 13 70 0 1000 1
a 14 41 0 1000 6
a 14 42 0 1000 8
a 14 43 0 1000 6
a 14 44 0 1000 8
a 14 45 0 1000 10
a 14 46 0 1000 7
a 14 47 0 1000 9
a 14 48 0 1000 4
a 14 49 0 1000 5
a 14 50 0 1000 9
a 14 51 0 1000 8
a 14 52 0 1000 9
a 14 53 0 1000 10
a 14 54 0 1000 9
a 14 55 0 1000 7
a 14 56 0 1000 1
a 14 57 0 1000 8
a 14 58 0 1000 10
a 14 59 0 1000 9
a 14 60 0 1000 2
a 14 61 0 1000 8
a 14 62 0 1000 10
a 14 63 0 1000 9
a 14 64 0 1000 9
a 14 65 0 1000 5
a 14 66 0 1000 10
a 14 67 0 1000 2
a 14 68 0 1000 3
a 14 69 0 1000 9
a 14 70 0 1000 4
a 15 41 0 1000 6
a 15 42 0 1000 10
a 15 43 0 1000 10
a 15 44 0 1000 1
a 15 45 0 1000 9
a 15 46 0 1000 4
a 15 47 0 1000 9
a 15 48 0 1000 4
a 15 49 0 1000 2
a 15 50 0 1000 10
a 15 51 0 1000 2
a 15 52 0 1000 9
a 15 53 0 1000 6
a 15 54 0 1000 10
a 15 55 0 1000 1
a 15 56 0 1000 6
a 15 57 0 1000 7
a 15 58 0 1000 4
a 15 59 0 1000 2
a 15 60 0 1000 2
a 15 61 0 1000 8
a 15 62 0 1000 2
a 15 63 0 1000 2
a 15 64 0 1000 5
a 15 65 0 1000 4
a 15 66 0 1000 6
a 15 67 0 1000 10
a 15 68 0 1000 8
a 15 69 0 1000 3
a 15 70 0 1000 10
a 16 41 0 1000 5
a 16 42 0 1000 7
a 16 43 0 1000 6
a 16 44 0 1000 1
a 16 45 0 1000 3
a 16 46 0 1000 9
a 16 47 0 1000 10
a 16 48 0 1000 9
a 16 49 0 1000 10
a 16 50 0 1000 4
a 16 51 0 1000 3
a 16 52 0 1000 5
a 16 53 0 1000 9
a 16 54 0 1000 9
a 16 55 0 1000 1
a 16 56 0 1000 9
a 16 57 0 1000 5
a 16 58 0 1000 9
a 16 59 0 1000 8
a 16 60 0 1000 9
a 16 61 0 1000 3
a 16 62 0 1000 9
a 16 63 0 1000 2
a 16 64 0 1000 7
a 16 65 0 1000 7
a 16 66 0 1000 5
a 16 67 0 1000 8
a 16 68 0 1000 5
a 16 69 0 1000 7
a 16 70 0 1000 3
a 17 41 0 1000 4
a 17 42 0 1000 2
a 17 43 0 1000 2
a 17 44 0 1000 2
a 17 45 0 1000 5
a 17 46 0 1000 6
a 17 47 0 1000 4
a 17 48 0 1000 5
a 17 49 0 1000 7
a 17 50 0 1000 2
a 17 51 0 1000 7
a 17 52 0 1000 8
a 17 53 0 1000 4
a 17 54 0 1000 9
a 17 55 0 1000 10
a 17 56 0 1000 4
a 17 57 0 1000 3
a 17 58 0 1000 3
a 17 59 0 1000 5
a 17 60 0 1000 6
a 17 61 0 1000 2
a 17 62 0 1000 2
a 17 63 0 1000 10
a 17 64 0 1000 4
a 17 65 0 1000 8
a 17 66 0 1000 7
a 17 67 0 1000 5
a 17 68 0 1000 10
a 17 69 0 1000 5
a 17 70 0 1000 9
a 18 41 0 1000 2
a 18 42 0 1000 5
a 18 43 0 1000 3
a 18 44 0 1000 7
a 18 45 0 1000 10
a 18 46 0 1000 1
a 18 47 0 1000 3
a 18 48 0 1000 8
a 18 49 0 1000 4
a 18 50 0 1000 6
a 18 51 0 1000 5
a 18 52 0 1000 10
a 18 53 0 1000 2
a 18 54 0 1000 7
a 18 55 0 1000 3
a 18 56 0 1000 5
a 18 57 0 1000 6
a 18 58 0 1000 4
a 18 59 0 1000 7
a 18 60 0 1000 3
a 18 61 0 1000 2
a 18 62 0 1000 5
a 18 63 0 1000 1
a 18 64 0 1000 2
a 18 65 0 1000 2
a 18 66 0 1000 3
a 18 67 0 1000 3
a 18 68 0 1000 8
a 18 69 0 1000 4
a 18 70 0 1000 9
a 19 41 0 1000 1
a 19 42 0 1000 5
a 19 43 0 1000 1
a 19 44 0 1000 9
a 19 45 0 1000 1
a 19 46 0 1000 2
a 19 47 0 1000 6
a 19 48 0 1000 7
a 19 49 0 1000 9
a 19 50 0 1000 9
a 19 51 0 1000 1
a 19 52 0 1000 6
a 19 53 0 1000 10
a 19 54 0 1000 9
a 19 55 0 1000 1
a 19 56 0 1000 2
a 19 57 0 1000 10
a 19 58 0 1000 3
a 19 59 0 1000 2
a 19 60 0 1000 3
a 19 61 0 1000 1
a 19 62 0 1000 2
a 19 63 0 1000 3
a 19 64 0 1000 2
a 19 65 0 1000 7
a 19 66 0 1000 7
a 19 67 0 1000 5
a 19 68 0 1000 1
a 19 69 0 1000 6
a 19 70 0 1000 8
a 20 41 0 1000 9
a 20 42 0 1000 6
a 20 43 0 1000 4
a 20 44 0 1000 5
a 20 45 0 1000 6
a 20 46 0 1000 1
a 20 47 0 1000 10
a 20 48 0 1000 3
a 20 49 0 1000 6
a 20 50 0 1000 2
a 20 51 0 1000 10
a 20 52 0 1000 9
a 20 53 0 1000 5
a 20 54 0 1000 9
a 20 55 0 1000 3
a 20 56 0 1000 7
a 20 57 0 1000 6
a 20 58 0 1000 2
a 20 59 0 1000 1
a 20 60 0 1000 1
a 20 61 0 1000 3
a 20 62 0 1000 10
a 20 63 0 1000 7
a 20 64 0 1000 1
a 20 65 0 1000 9
a 20 66 0 1000 9
a 20 67 0 1000 2
a 20 68 0 1000 9
a 20 69 0 1000 3
a 20 70 0 1000 5
a 21 41 0 1000 8
a 21 42 0 1000 5
a 21 43 0 1000 2
a 21 44 0 1000 2
a 21 45 0 1000 10
a 21 46 0 1000 5
a 21 47 0 1000 3
a 21 48 0 1000 5
a 21 49 0 1000 4
a 21 50 0 1000 1
a 21 51 0 1000 2
a 21 52 0 1000 7
a 21 53 0 1000 8
a 21 54 0 1000 1
a 21 55 0 1000 4
a 21 56 0 1000 3
a 21 57 0 1000 7
a 21 58 0 1000 5
a 21 59 0 1000 10
a 21 60 0 1000 1
a 21 61 0 1000 1
a 21 62 0 1000 3
a 21 63 0 1000 1
a 21 64 0 1000 5
a 21 65 0 1000 5
a 21 66 0 1000 10
a 21 67 0 1000 10
a 21 68 0 1000 3
a 21 69 0 1000 7
a 21 70 0 1000 7
a 22 41 0 1000 9
a 22 42 0 1000 1
a 22 43 0 1000 1
a 22 44 0 1000 2
a 22 45 0 1000 4
a 22 46 0 1000 5
a 22 47 0 1000 7
a 22 48 0 1000 4
a 22 49 0 1000 9
a 22 50 0 1000 8
a 22 51 0 1000 5
a 22 52 0 1000 2
a 22 53 0 1000 9
a 22 54 0 1000 1
a 22 55 0 1000 9
a 22 56 0 1000 6
a 22 57 0 1000 3
a 22 58 0 1000 6
a 22 59 0 1000 8
a 22 60 0 1000 6
a 22 61 0 1000 2
a 22 62 0 1000 8
a 22 63 0 1000 10
a 22 64 0 1000 2
a 22 65 0 1000 4
a 22 66 0 1000 5
a 22 67 0 1000 5
a 22 68 0 1000 8
a 22 69 0 1000 7
a 22 70 0 1000 1
a 23 41 0 1000 6
a 23 42 0 1000 10
a 23 43 0 1000 8
a 23 44 0 1000 8
a 23 45 0 1000 2
a 23 46 0 1000 2
a 23 47 0 1000 7
a 23 48 0 1000 6
a 23 49 0 1000 7
a 23 50 0 1000 10
a 23 51 0 1000 6
a 23 52 0 1000 4
a 23 53 0 1000 7
a 23 54 0 1000 2
a 23 55 0 1000 7
a 23 56 0 1000 9
a 23 57 0 1000 5
a 23 58 0 1000 1
a 23 59 0 1000 6
a 23 60 0 1000 10
a 23 61 0 1000 8
a 23 62 0 1000 4
a 23 63 0 1000 6
a 23 64 0 1000 1
a 23 65 0 1000 5
a 23 66 0 1000 1
a 23 67 0 1000 2
a 23 68 0 1000 10
a 23 69 0 1000 9
a 23 70 0 1000 10
a 24 41 0 1000 10
a 24 42 0 1000 10
a 24 43 0 1000 7
a 24 44 0 1000 9
a 24 45 0 1000 3
a 24 46 0 1000 5
a 24 47 0 1000 5
a 24 48 0 1000 1
a 24 49 0 1000 9
a 24 50 0 1000 8
a 24 51 0 1000 10
a 24 52 0 1000 7
a 24 53 0 1000 10
a 24 54 0 1000 8
a 24 55 0 1000 1
a 24 56 0 1000 9
a 24 57 0 1000 2
a 24 58 0 1000 8
a 24 59 0 1000 6
a 24 60 0 1000 5
a 24 61 0 1000 1
a 24 62 0 1000 5
a 24 63 0 1000 2
a 24 64 0 1000 8
a 24 65 0 1000 3
a 24 66 0 1000 2
a 24 67 0 1000 5
a 24 68 0 1000 7
a 24 69 0 1000 4
a 24 70 0 1000 1
a 25 41 0 1000 1
a 25 42 0 1000 8
a 25 43 0 1000 8
a 25 44 0 1000 8
a 25 45 0 1000 10
a 25 46 0 1000 6
a 25 47 0 1000 8
a 25 48 0 1000 9
a 25 49 0 1000 10
a 25 50 0 1000 2
a 25 51 0 1000 5
a 25 52 0 1000 4
a 25 53 0 1000 3
a 25 54 0 1000 9
a 25 55 0 1000 1
a 25 56 0 1000 1
a 25 57 0 1000 5
a 25 58 0 1000 8
a 25 59 0 1000 1
a 25 60 0 1000 7
a 25 61 0 1000 10
a 25 62 0 1000 4
a 25 63 0 1000 4
a 25 64 0 1000 4
a 25 65 0 1000 9
a 25 66 0 1000 6
a 25 67 0 1000 9
a 25 68 0 1000 10
a 25 69 0 1000 6
a 25 70 0 1000 2
a 26 41 0 1000 1
a 26 42 0 1000 8
a 26 43 0 1000 8
a 26 44 0 1000 8
a 26 45 0 1000 8
a 26 46 0 1000 3
a 26 47 0 1000 10
a 26 48 0 1000 3
a 26 49 0 1000 8
a 26 50 0 1000 6
a 26 51 0 1000 2
a 26 52 0 1000 4
a 26 53 0 1000 9
a 26 54 0 1000 4
a 26 55 0 1000 1
a 26 56 0 1000 7
a 26 57 0 1000 3
a 26 58 0 1000 3
a 26 59 0 1000 7
a 26 60 0 1000 2
a 26 61 0 1000 8
a 26 62 0 1000 7
a 26 63 0 1000 7
a 26 64 0 1000 8
a 26 65 0 1000 2
a 26 66 0 1000 7
a 26 67 0 1000 4
a 26 68 0 1000 5
a 26 69 0 1000 9
a 26 70 0 1000 5
a 27 41 0 1000 7
a 27 42 0 1000 8
a 27 43 0 1000 3
a 27 44 0 1000 9
a 27 45 0 1000 2
a 27 46 0 1000 7
a 27 47 0 1000 6
a 27 48 0 1000 6
a 27 49 0 1000 1
a 27 50 0 1000 9
a 27 51 0 1000 2
a 27 52 0 1000 2
a 27 53 0 1000 10
a 27 54 0 1000 6
a 27 55 0 1000 5
a 27 56 0 1000 7
a 27 57 0 1000 5
a 27 58 0 1000 10
a 27 59 0 1000 3
a 27 60 0 1000 2
a 27 61 0 1000 4
a 27 62 0 1000 7
a 27 63 0 1000 3
a 27 64 0 1000 5
a 27 65 0 1000 4
a 27 66 0 1000 4
a 27 67 0 1000 2
a 27 68 0 1000 1
a 27 69 0 1000 6
a 27 70 0 1000 1
a 28 41 0 1000 9
a 28 42 0 1000 6
a 28 43 0 1000 4
a 28 44 0 1000 4
a 28 45 0 1000 9
a 28 46 0 1000 4
a 28 47 0 1000 1
a 28 48 0 1000 1
a 28 49 0 1000 3
a 28 50 0 1000 4
a 28 51 0 1000 1
a 28 52 0 1000 8
a 28 53 0 1000 2
a 28 54 0 1000 9
a 28 55 0 1000 10
a 28 56 0 1000 6
a 28 57 0 1000 7
a 28 58 0 1000 1
a 28 59 0 1000 3
a 28 60 0 1000 5
a 28 61 0 1000 3
a 28 62 0 1000 4
a 28 63 0 1000 2
a 28 64 0 1000 7
a 28 65 0 1000 2
a 28 66 0 1000 1
a 28 67 0 1000 5
a 28 68 0 1000 9
a 28 69 0 1000 5
a 28 70 0 1000 8
a 29 41 0 1000 6
a 29 42 0 1000 6
a 29 43 0 1000 10
a 29 44 0 1000 1
a 29 45 0 1000 10
a 29 46 0 1000 7
a 29 47 0 1000 9
a 29 48 0 1000 7
a 29 49 0 1000 7
a 29 50 0 1000 2
a 29 51 0 1000 7
a 29 52 0 1000 5
a 29 53 0 1000 8
a 29 54 0 1000 10
a 29 55 0 1000 2
a 29 56 0 1000 7
a 29 57 0 1000 5
a 29 58 0 1000 5
a 29 59 0 1000 5
a 29 60 0 1000 9
a 29 61 0 1000 7
a 29 62 0 1000 1
a 29 63 0 1000 9
a 29 64 0 1000 2
a 29 65 0 1000 8
a 29 66 0 1000 5
a 29 67 0 1000 4
a 29 68 0 1000 8
a 29 69 0 1000 2
a 29 70 0 1000 8
a 30 41 0 1000 10
a 30 42 0 1000 3
a 30 43 0 1000 7
a 30 44 0 1000 5
a 30 45 0 1000 9
a 30 46 0 1000 6
a 30 47 0 1000 8
a 30 48 0 1000 2
a 30 49 0 1000 9
a 30 50 0 1000 4
a 30 51 0 1000 8
a 30 52 0 1000 1
a 30 53 0 1000 5
a 30 54 0 1000 1
a 30 55 0 1000 9
a 30 56 0 1000 9
a 30 57 0 1000 6
a 30 58 0 1000 3
a 30 59 0 1000 6
a 30 60 0 1000 6
a 30 61 0 1000 7
a 30 62 0 1000 1
a 30 63 0 1000 5
a 30 64 0 1000 6
a 30 65 0 1000 1
a 30 66 0 1000 5
a 30 67 0 1000 7
a 30 68 0 1000 8
a 30 69 0 1000 3
a 30 70 0 1000 5
a 31 41 0 1000 3
a 31 42 0 1000 1
a 31 43 0 1000 6
a 31 44 0 1000 10
a 31 45 0 1000 3
a 31 46 0 1000 4
a 31 47 0 1000 8
a 31 48 0 1000 3
a 31 49 0 1000 1
a 31 50 0 1000 6
a 31 51 0 1000 9
a 31 52 0 1000 3
a 31 53 0 1000 6
a 31 54 0 1000 1
a 31 55 0 1000 2
a 31 56 0 1000 7
a 31 57 0 1000 7
a 31 58 0 1000 8
a 31 59 0 1000 4
a 31 60 0 1000 10
a 31 61 0 1000 10
a 31 62 0 1000 2
a 31 63 0 1000 2
a 31 64 0 1000 6
a 31 65 0 1000 2
a 31 66 0 1000 9
a 31 67 0 1000 9
a 31 68 0 1000 1
a 31 69 0 1000 4
a 31 70 0 1000 4
a 32 41 0 1000 9
a 32 42 0 1000 1
a 32 43 0 1000 9
a 32 44 0 1000 4
a 32 45 0 1000 1
a 32 46 0 1000 7
a 32 47 0 1000 6
a 32 48 0 1000 6
a 32 49 0 1000 9
a 32 50 0 1000 5
a 32 51 0 1000 1
a 32 52 0 1000 3
a 32 53 0 1000 2
a 32 54 0 1000 10
a 32 55 0 1000 8
a 32 56 0 1000 4
a 32 57 0 1000 5
a 32 58 0 1000 4
a 32 59 0 1000 5
a 32 60 0 1000 5
a 32 61 0 1000 9
a 32 62 0 1000 9
a 32 63 0 1000 5
a 32 64 0 1000 4
a 32 65 0 1000 6
a 32 66 0 1000 2
a 32 67 0 1000 9
a 32 68 0 1000 10
a 32 69 0 1000 8
a 32 70 0 1000 4
a 33 41 0 1000 6
a 33 42 0 1000 8
a 33 43 0 1000 9
a 33 44 0 1000 8
a 33 45 0 1000 7
a 33 46 0 1000 8
a 33 47 0 1000 4
a 33 48 0 1000 3
a 33 49 0 1000 1
a 33 50 0 1000 5
a 33 51 0 1000 2
a 33 52 0 1000 2
a 33 53 0 1000 10
a 33 54 0 1000 9
a 33 55 0 1000 9
a 33 56 0 1000 7
a 33 57 0 1000 1
a 33 58 0 1000 3
a 33 59 0 1000 9
a 33 60 0 1000 8
a 33 61 0 1000 5
a 33 62 0 1000 5
a 33 63 0 1000 6
a 33 64 0 1000 10
a 33 65 0 1000 6
a 33 66 0 1000 1
a 33 67 0 1000 6
a 33 68 0 1000 6
a 33 69 0 1000 9
a 33 70 0 1000 9
a 34 41 0 1000 8
a 34 42 0 1000 7
a 34 43 0 1000 8
a 34 44 0 1000 5
a 34 45 0 1000 10
a 34 46 0 1000 3
a 34 47 0 1000 4
a 34 48 0 1000 4
a 34 49 0 1000 4
a 34 50 0 1000 10
a 34 51 0 1000 10
a 34 52 0 1000 3
a 34 53 0 1000 4
a 34 54 0 1000 1
a 34 55 0 1000 4
a 34 56 0 1000 7
a 34 57 0 1000 10
a 34 58 0 1000 7
a 34 59 0 1000 5
a 34 60 0 1000 10
a 34 61 0 1000 2
a 34 62 0 1000 7
a 34 63 0 1000 1
a 34 64 0 1000 1
a 34 65 0 1000 9
a 34 66 0 1000 1
a 34 67 0 1000 3
a 34 68 0 1000 10
a 34 69 0 1000 2
a 34 70 0 1000 7
a 35 41 0 1000 3
a 35 42 0 1000 8
a 35 43 0 1000 4
a 35 44 0 1000 2
a 35 45 0 1000 7
a 35 46 0 1000 6
a 35 47 0 1000 5
a 35 48 0 1000 5
a 35 49 0 1000 9
a 35 50 0 1000 6
a 35 51 0 1000 3
a 35 52 0 1000 7
a 35 53 0 1000 9
a 35 54 0 1000 9
a 35 55 0 1000 8
a 35 56 0 1000 3
a 35 57 0 1000 2
a 35 58 0 1000 6
a 35 59 0 1000 7
a 35 60 0 1000 10
a 35 61 0 1000 1
a 35 62 0 1000 10
a 35 63 0 1000 2
a 35 64 0 1000 9
a 35 65 0 1000 8
a 35 66 0 1000 1
a 35 67 0 1000 6
a 35 68 0 1000 8
a 35 69 0 1000 7
a 35 70 0 1000 10
a 36 41 0 1000 1
a 36 42 0 1000 5
a 36 43 0 1000 3
a 36 44 0 1000 7
a 36 45 0 1000 8
a 36 46 0 1000 2
a 36 47 0 1000 9
a 36 48 0 1000 2
a 36 49 0 1000 4
a 36 50 0 1000 8
a 36 51 0 1000 3
a 36 52 0 1000 5
a 36 53 0 1000 8
a 36 54 0 1000 9
a 36 55 0 1000 8
a 36 56 0 1000 6
a 36 57 0 1000 8
a 36 58 0 1000 3
a 36 59 0 1000 3
a 36 60 0 1000 7
a 36 61 0 1000 9
a 36 62 0 1000 7
a 36 63 0 1000 3
a 36 64 0 1000 3
a 36 65 0 1000 6
a 36 66 0 1000 4
a 36 67 0 1000 7
a 36 68 0 1000 6
a 36 69 0 1000 4
a 36 70 0 1000 6
a 37 41 0 1000 10
a 37 42 0 1000 7
a 37 43 0 1000 9
a 37 44 0 1000 10
a 37 45 0 1000 6
a 37 46 0 1000 8
a 37 47 0 1000 5
a 37 48 0 1000 3
a 37 49 0 1000 2
a 37 50 0 1000 6
a 37 51 0 1000 5
a 37 52 0 1000 10
a 37 53 0 1000 3
a 37 54 0 1000 9
a 37 55 0 1000 7
a 37 56 0 1000 7
a 37 57 0 1000 2
a 37 58 0 1000 4
a 37 59 0 1000 2
a 37 60 0 1000 3
a 37 61 0 1000 4
a 37 62 0 1000 4
a 37 63 0 1000 6
a 37 64 0 1000 10
a 37 65 0 1000 1
a 37 66 0 1000 5
a 37 67 0 1000 2
a 37 68 0 1000 10
a 37 69 0 1000 1
a 37 70 0 1000 5
a 38 41 0 1000 6
a 38 42 0 1000 4
a 38 43 0 1000 9
a 38 44 0 1000 8
a 38 45 0 1000 9
a 38 46 0 1000 6
a 38 47 0 1000 7
a 38 48 0 1000 9
a 38 49 0 1000 4
a 38 50 0 1000 10
a 38 51 0 1000 1
a 38 52 0 1000 6
a 38 53 0 1000 1
a 38 54 0 1000 7
a 38 55 0 1000 3
a 38 56 0 1000 9
a 38 57 0 1000 5
a 38 58 0 1000 5
a 38 59 0 1000 7
a 38 60 0 1000 10
a 38 61 0 1000 3
a 38 62 0 1000 4
a 38 63 0 1000 4
a 38 64 0 1000 2
a 38 65 0 1000 3
a 38 66 0 1000 7
a 38 67 0 1000 2
a 38 68 0 1000 9
a 38 69 0 1000 9
a 38 70 0 1000 1
a 39 41 0 1000 6
a 39 42 0 1000 5
a 39 43 0 1000 2
a 39 44 0 1000 7
a 39 45 0 1000 1
a 39 46 0 1000 2
a 39 47 0 1000 2
a 39 48 0 1000 5
a 39 49 0 1000 1
a 39 50 0 1000 2
a 39 51 0 1000 10
a 39 52 0 1000 3
a 39 53 0 1000 10
a 39 54 0 1000 2
a 39 55 0 1000 2
a 39 56 0 1000 8
a 39 57 0 1000 3
a 39 58 0 1000 9
a 39 59 0 1000 8
a 39 60 0 1000 2
a 39 61 0 1000 10
a 39 62 0 1000 8
a 39 63 0 1000 4
a 39 64 0 1000 1
a 39 65 0 1000 3
a 39 66 0 1000 3
a 39 67 0 1000 10
a 39 68 0 1000 8
a 39 69 0 1000 5
a 39 70 0 1000 2
a 40 41 0 1000 4
a 40 42 0 1000 8
a 40 43 0 1000 1
a 40 44 0 1000 3
a 40 45 0 1000 4
a 40 46 0 1000 7
a 40 47 0 1000 4
a 40 48 0 1000 4
a 40 49 0 1000 6
a 40 50 0 1000 2
a 40 51 0 1000 8
a 40 52 0 1000 1
a 40 53 0 1000 4
a 40 54 0 1000 5
a 40 55 0 1000 1
a 40 56 0 1000 10
a 40 57 0 1000 4
a 40 58 0 1000 2
a 40 59 0 1000 10
a 40 60 0 1000 6
a 40 61 0 1000 5
a 40 62 0 1000 3
a 40 63 0 1000 1
a 40 64 0 1000 7
a 40 65 0 1000 2
a 40 66 0 1000 9
a 40 67 0 1000 2
a 40 68 0 1000 2
a 40 69 0 1000 5
a 40 70 0 1000 9
